************************************************************************
file with basedata            : md323_.bas
initial value random generator: 977920114
************************************************************************
projects                      :  1
jobs (incl. supersource/sink ):  22
horizon                       :  161
RESOURCES
  - renewable                 :  2   R
  - nonrenewable              :  2   N
  - doubly constrained        :  0   D
************************************************************************
PROJECT INFORMATION:
pronr.  #jobs rel.date duedate tardcost  MPM-Time
    1     20      0       13       16       13
************************************************************************
PRECEDENCE RELATIONS:
jobnr.    #modes  #successors   successors
   1        1          3           2   3   4
   2        3          3           7  11  17
   3        3          3           6   9  13
   4        3          3           5   9  19
   5        3          3           6  10  16
   6        3          2          12  18
   7        3          2           8  14
   8        3          1          18
   9        3          3          12  14  15
  10        3          2          11  15
  11        3          2          12  21
  12        3          1          20
  13        3          2          16  17
  14        3          1          16
  15        3          2          18  21
  16        3          2          20  21
  17        3          1          19
  18        3          1          20
  19        3          1          22
  20        3          1          22
  21        3          1          22
  22        1          0        
************************************************************************
REQUESTS/DURATIONS:
jobnr. mode duration  R 1  R 2  N 1  N 2
------------------------------------------------------------------------
  1      1     0       0    0    0    0
  2      1     4       2    0    9    0
         2     4       0    9    9    0
         3     7       0    7    9    0
  3      1     1       4    0    0    8
         2     3       0    2    0    6
         3     8       2    0    0    4
  4      1     2       0    5    9    0
         2     2       0    5    0    9
         3     5       6    0    0    4
  5      1     2       0    7    0    8
         2     6      10    0    0    6
         3     8       0    2    0    5
  6      1     1       0    4    8    0
         2     3       0    4    0    6
         3    10       0    4    0    4
  7      1     1       0    9    0    6
         2     2       0    6    0    4
         3     5       0    5    0    3
  8      1     5       9    0    0    6
         2     7       0    3    5    0
         3     9       0    3    4    0
  9      1     5       0    9    0    3
         2     7       3    0    0    2
         3     9       0    8    8    0
 10      1     2       0   10    8    0
         2     6       7    0    0    5
         3    10       0    8    0    5
 11      1     1       6    0    2    0
         2     9       5    0    1    0
         3    10       5    0    0    7
 12      1     1       0    9    6    0
         2     6       3    0    6    0
         3     8       0    7    2    0
 13      1     1       0    4    0    4
         2     3       0    3    7    0
         3     7       3    0    0    4
 14      1     1       0    7    0    9
         2     5       1    0    0    7
         3     7       0    4    1    0
 15      1     1       7    0    0    7
         2     2       7    0    8    0
         3     8       4    0    5    0
 16      1     1       7    0    5    0
         2     2       7    0    0    2
         3     7       3    0    0    2
 17      1     1       0    6    8    0
         2     4       6    0    6    0
         3    10       4    0    3    0
 18      1     1       0    5    0    7
         2     2       0    4    0    2
         3     8       0    3    8    0
 19      1     1       0    5    0    3
         2     1       3    0    6    0
         3     8       0    5    6    0
 20      1     2       0    6    0   10
         2     4       8    0    0    6
         3     7       0    4    0    4
 21      1     1       3    0    0    8
         2     7       3    0    0    4
         3    10       3    0    0    2
 22      1     0       0    0    0    0
************************************************************************
RESOURCEAVAILABILITIES:
  R 1  R 2  N 1  N 2
   22   30   35   41
************************************************************************
MAXIMAL LAGS:
from  to  type  delay
    1   12   ES      0
    1    2   ES      0
    2   12   ES      0
    1    3   ES      0
    3   12   ES      0
    1    4   ES      0
    4   12   ES      0
    1    5   ES      0
    5   12   ES      0
    1    6   ES      0
    6   12   ES      0
    1    7   ES      0
    7   12   ES      0
    1    8   ES      0
    8   12   ES      0
    1    9   ES      0
    9   12   ES      0
    1   10   ES      0
   10   12   ES      0
    1   11   ES      0
   11   12   ES      0
    1   12   ES      0
    2    7   SS      5
    2    7   SE     -5
    2    7   ES     -6
    2    7   EE    -10
    2   11   SS      6
    2   11   SE     -2
    2   11   ES     -1
    2   11   EE      4
    2   17   SS      8
    2   17   SE      6
    2   17   ES     10
    2   17   EE      3
    3    6   SS      6
    3    6   SE      6
    3    6   ES    -12
    3    6   EE     -5
    3    9   SS     -2
    3    9   SE     12
    3    9   ES      7
    3    9   EE      2
    3   13   SS     -9
    3   13   SE      3
    3   13   ES      3
    3   13   EE    -10
    4    5   SS      3
    4    5   SE     10
    4    5   ES    -12
    4    5   EE     -6
    4    9   SS    -11
    4    9   SE     -1
    4    9   ES      1
    4    9   EE      4
    4   19   SS      2
    4   19   SE    -11
    4   19   ES      6
    4   19   EE     -3
    5    6   SS    -10
    5    6   SE     -8
    5    6   ES     -4
    5    6   EE     10
    5   10   SS      0
    5   10   SE    -12
    5   10   ES     -2
    5   10   EE    -10
    5   16   SS      0
    5   16   SE     -4
    5   16   ES      5
    5   16   EE     -5
    6   18   SS     12
    6   18   SE      8
    6   18   ES      8
    6   18   EE      5
    7    8   SS      6
    7    8   SE     -2
    7    8   ES     -6
    7    8   EE     -5
    7   14   SS      2
    7   14   SE      0
    7   14   ES      5
    7   14   EE     -4
    8   18   SS     -9
    8   18   SE     12
    8   18   ES      5
    8   18   EE      2
    9   14   SS     12
    9   14   SE      0
    9   14   ES      2
    9   14   EE      2
    9   15   SS      9
    9   15   SE      1
    9   15   ES    -11
    9   15   EE    -12
   10   11   SS      0
   10   11   SE     -4
   10   11   ES     -5
   10   11   EE     -3
   10   15   SS     -2
   10   15   SE      8
   10   15   ES     10
   10   15   EE      6
   11   21   SS     10
   11   21   SE      2
   11   21   ES      9
   11   21   EE      8
   12   20   SS      9
   12   20   SE     -5
   12   20   ES    -10
   12   20   EE      8
   13   16   SS     12
   13   16   SE      3
   13   16   ES     12
   13   16   EE     -5
   13   17   SS    -11
   13   17   SE     -5
   13   17   ES     -5
   13   17   EE     -7
   14   16   SS     -4
   14   16   SE      6
   14   16   ES      1
   14   16   EE     11
   15   18   SS     11
   15   18   SE     11
   15   18   ES      2
   15   18   EE     -2
   15   21   SS     12
   15   21   SE      3
   15   21   ES     -4
   15   21   EE     -2
   16   20   SS     -9
   16   20   SE     12
   16   20   ES    -12
   16   20   EE     -3
   16   21   SS      5
   16   21   SE     -4
   16   21   ES      5
   16   21   EE    -11
   17   19   SS      6
   17   19   SE     -3
   17   19   ES     10
   17   19   EE      2
   18   20   SS     11
   18   20   SE     -6
   18   20   ES     -9
   18   20   EE      5
   19   22   SS    -10
   19   22   SE     -1
   22   19   SE      0
   19   22   ES      0
   19   22   EE    -12
   20   22   SS     -2
   20   22   SE     -3
   20   22   ES     -7
   20   22   EE      3
   21   22   SS    -11
   21   22   SE      2
   21   22   ES      7
   21   22   EE     12
************************************************************************
